NAME : instance_9_700
TYPE : TSP
DIMENSION : 9
EDGE_WEIGHT_TYPE : EUC_2D
LOWER : 0
UPPER : 100
NODE_COORD_SECTION
1 32.5608925195 48.7774574198
2 56.002007355 48.1941748876
3 21.2026466383 35.0256027887
4 71.9149810029 29.5775896637
5 19.7926835157 29.355162615
6 31.2874091323 21.1065798067
7 41.6406659642 9.0121593326
8 31.6764081828 97.8610904189
9 99.4588976493 56.2914514681
EOF
